60
1 0 24
2 1 36
3 0 35
3 1 8
3 2 6
4 1 22
4 2 40
4 3 25
5 0 26
5 1 6
5 3 26
5 4 31
6 0 31
6 2 31
6 3 36
6 4 29
6 5 1
7 0 39
7 1 22
7 2 39
7 3 28
7 4 4
7 5 12
7 6 33
8 0 28
8 1 4
8 2 25
8 3 1
8 5 32
8 6 11
8 7 7
9 0 7
9 2 38
9 4 12
9 6 20
10 0 24
10 1 11
10 3 23
10 4 7
10 6 30
10 7 22
10 9 21
11 1 20
11 2 30
11 3 33
11 5 10
11 7 7
11 8 30
11 9 21
11 10 23
12 0 9
12 1 9
12 2 19
12 3 27
12 4 17
12 5 34
12 6 2
12 7 6
12 8 14
12 9 7
12 10 8
13 0 37
13 1 35
13 2 16
13 3 34
13 4 8
13 6 34
13 7 25
13 9 24
13 10 14
13 11 14
13 12 14
14 0 29
14 2 39
14 3 4
14 4 40
14 5 2
14 6 14
14 7 34
14 8 7
14 9 22
14 11 20
14 12 35
14 13 37
15 0 17
15 1 15
15 3 10
15 4 9
15 5 8
15 7 26
15 8 29
15 9 6
15 10 26
15 11 5
15 12 3
15 13 26
15 14 19
16 1 36
16 2 12
16 3 6
16 4 21
16 5 1
16 6 20
16 7 28
16 8 37
16 9 21
16 10 15
16 11 8
16 12 4
16 13 13
17 0 38
17 1 12
17 2 29
17 3 23
17 4 28
17 5 5
17 6 18
17 8 31
17 9 13
17 10 9
17 11 30
17 12 33
17 14 40
17 15 15
17 16 40
18 0 37
18 1 9
18 2 31
18 3 24
18 4 16
18 5 33
18 6 31
18 7 7
18 8 38
18 9 12
18 10 26
18 11 30
18 12 5
18 13 7
18 14 13
18 15 1
18 16 40
18 17 22
19 0 7
19 1 10
19 3 11
19 4 1
19 5 18
19 6 5
19 7 30
19 8 30
19 9 24
19 11 24
19 12 33
19 13 27
19 14 26
19 15 39
19 17 33
20 0 6
20 2 25
20 4 30
20 6 14
20 7 26
20 8 17
20 10 3
20 12 31
20 13 4
20 14 9
20 15 18
20 16 11
20 17 19
20 18 18
21 1 38
21 2 19
21 4 1
21 5 10
21 6 2
21 7 28
21 9 23
21 10 26
21 11 29
21 12 19
21 13 22
21 14 36
21 15 29
21 16 40
21 18 40
21 19 13
21 20 20
22 0 31
22 1 15
22 3 12
22 4 35
22 5 18
22 6 12
22 7 26
22 10 17
22 11 11
22 12 11
22 14 14
22 15 19
22 16 13
22 17 7
22 18 13
22 19 30
22 20 16
23 0 25
23 1 7
23 2 2
23 3 29
23 5 24
23 6 18
23 7 27
23 8 2
23 9 16
23 10 28
23 11 2
23 12 3
23 13 6
23 14 16
23 15 1
23 16 6
23 17 12
23 18 36
23 19 23
23 20 21
23 22 33
24 1 9
24 2 4
24 3 19
24 4 13
24 6 33
24 7 36
24 8 36
24 9 4
24 10 21
24 11 24
24 12 3
24 13 14
24 14 20
24 15 33
24 16 27
24 18 40
24 19 7
24 20 8
24 21 7
24 22 23
24 23 9
25 0 26
25 1 40
25 4 8
25 5 5
25 6 7
25 7 25
25 8 1
25 9 25
25 11 28
25 12 33
25 13 38
25 14 3
25 16 38
25 17 27
25 18 29
25 20 14
25 24 7
26 0 36
26 1 13
26 2 10
26 3 39
26 4 9
26 5 12
26 6 29
26 7 32
26 8 27
26 9 34
26 10 19
26 11 11
26 12 40
26 13 26
26 14 10
26 15 2
26 16 5
26 18 27
26 20 31
26 21 1
26 22 36
26 23 10
26 24 33
26 25 17
27 0 2
27 1 39
27 2 16
27 3 9
27 4 13
27 5 40
27 7 37
27 9 11
27 10 40
27 11 16
27 12 30
27 13 34
27 14 2
27 15 25
27 16 24
27 17 37
27 18 15
27 20 39
27 22 15
27 23 34
27 24 5
27 25 27
27 26 12
28 0 19
28 2 5
28 4 24
28 5 22
28 6 3
28 8 20
28 9 37
28 10 22
28 11 5
28 14 33
28 15 17
28 16 40
28 17 36
28 19 15
28 20 22
28 21 32
28 22 1
28 23 31
28 25 33
28 26 34
28 27 10
29 0 13
29 1 1
29 2 17
29 3 35
29 6 35
29 7 36
29 8 14
29 9 4
29 10 24
29 12 13
29 13 37
29 14 15
29 15 2
29 16 39
29 17 22
29 18 26
29 19 29
29 20 1
29 22 22
29 24 16
29 25 23
29 26 19
29 27 20
29 28 34
30 0 3
30 3 35
30 4 35
30 5 37
30 6 34
30 7 16
30 10 35
30 12 5
30 13 3
30 14 35
30 16 22
30 17 39
30 18 31
30 19 24
30 20 15
30 21 27
30 22 8
30 23 20
30 24 30
30 25 8
30 26 20
30 28 34
30 29 4
31 1 5
31 2 3
31 3 13
31 4 8
31 6 4
31 7 40
31 9 17
31 10 40
31 11 7
31 12 31
31 13 15
31 14 34
31 15 39
31 16 9
31 17 30
31 19 5
31 20 15
31 21 26
31 22 16
31 24 6
31 25 22
31 26 6
31 27 17
31 28 22
32 0 10
32 1 18
32 3 4
32 5 39
32 6 38
32 7 20
32 8 37
32 9 6
32 10 25
32 12 15
32 13 20
32 14 36
32 15 16
32 16 24
32 17 33
32 18 13
32 20 39
32 21 38
32 22 37
32 23 12
32 24 17
32 25 29
32 26 39
32 28 11
32 29 29
32 30 33
32 31 7
33 0 5
33 2 14
33 3 40
33 5 10
33 7 35
33 8 31
33 9 8
33 10 6
33 11 24
33 12 39
33 13 22
33 15 13
33 16 6
33 17 32
33 18 15
33 19 29
33 21 6
33 22 6
33 23 8
33 24 20
33 25 7
33 26 34
33 27 28
33 29 15
33 30 18
33 31 6
33 32 8
34 0 27
34 2 22
34 3 29
34 4 10
34 5 18
34 6 18
34 7 25
34 9 21
34 11 37
34 12 19
34 15 11
34 16 6
34 17 28
34 18 21
34 19 37
34 20 31
34 22 1
34 23 40
34 24 22
34 25 9
34 26 18
34 27 19
34 28 17
34 32 22
34 33 31
35 0 34
35 1 9
35 2 4
35 3 11
35 6 30
35 7 28
35 8 34
35 9 38
35 10 13
35 13 40
35 14 5
35 15 29
35 16 4
35 17 3
35 18 4
35 19 3
35 21 32
35 22 18
35 23 25
35 24 28
35 25 17
35 26 33
35 27 11
35 28 15
35 29 18
35 30 16
35 31 18
35 33 10
35 34 36
36 0 40
36 1 10
36 2 10
36 3 7
36 4 39
36 5 14
36 6 2
36 7 20
36 9 33
36 10 36
36 12 32
36 13 37
36 15 1
36 17 22
36 18 4
36 19 4
36 20 37
36 22 38
36 23 35
36 24 16
36 25 4
36 26 25
36 27 20
36 28 20
36 30 29
36 31 13
36 32 25
36 33 35
36 34 29
37 0 39
37 1 4
37 2 21
37 3 17
37 4 32
37 5 26
37 7 14
37 9 32
37 10 21
37 11 22
37 12 11
37 13 13
37 14 1
37 15 24
37 16 10
37 17 10
37 19 7
37 20 24
37 21 27
37 23 11
37 24 24
37 26 20
37 27 17
37 28 17
37 31 11
37 33 8
37 34 11
37 35 15
37 36 10
38 0 17
38 1 22
38 2 31
38 4 4
38 5 6
38 7 33
38 8 24
38 10 22
38 11 26
38 14 33
38 16 10
38 17 11
38 18 17
38 21 4
38 23 23
38 24 13
38 25 26
38 26 13
38 28 5
38 29 40
38 30 3
38 32 33
38 33 6
38 34 24
38 35 38
38 36 9
38 37 7
39 0 36
39 1 26
39 2 6
39 4 11
39 5 10
39 6 9
39 7 37
39 8 23
39 9 3
39 10 4
39 11 15
39 12 20
39 15 17
39 16 21
39 17 15
39 18 31
39 19 5
39 22 28
39 24 7
39 25 34
39 26 19
39 27 28
39 28 3
39 29 28
39 30 38
39 31 18
39 32 13
39 33 6
39 34 8
39 35 23
39 36 15
39 37 18
40 0 24
40 1 19
40 2 5
40 3 11
40 4 23
40 5 20
40 6 26
40 7 20
40 8 6
40 9 40
40 10 31
40 11 21
40 12 2
40 14 33
40 15 15
40 16 37
40 18 32
40 19 21
40 20 4
40 22 36
40 23 39
40 24 36
40 25 16
40 26 38
40 27 24
40 28 39
40 29 18
40 30 18
40 31 18
40 33 27
40 34 35
40 35 19
40 36 9
40 37 11
40 39 4
41 0 29
41 1 33
41 2 36
41 3 2
41 6 22
41 7 35
41 8 33
41 9 2
41 10 18
41 11 26
41 12 6
41 13 12
41 14 4
41 15 15
41 16 9
41 17 11
41 18 35
41 19 38
41 22 34
41 23 24
41 24 26
41 27 31
41 28 39
41 29 4
41 30 3
41 31 27
41 32 34
41 33 37
41 34 3
41 36 5
41 37 13
41 38 28
42 1 27
42 2 13
42 3 18
42 4 19
42 5 19
42 6 19
42 7 7
42 8 15
42 9 23
42 10 12
42 11 13
42 13 14
42 14 14
42 15 8
42 16 7
42 17 15
42 18 32
42 20 39
42 21 26
42 22 36
42 24 3
42 25 1
42 26 23
42 27 32
42 28 7
42 29 18
42 30 1
42 31 15
42 32 4
42 33 15
42 34 19
42 36 28
42 37 39
42 38 14
42 39 16
42 40 8
42 41 20
43 0 33
43 2 36
43 5 33
43 6 1
43 8 21
43 9 3
43 10 19
43 11 15
43 12 29
43 13 30
43 14 18
43 15 28
43 18 3
43 19 3
43 20 15
43 21 11
43 22 23
43 23 27
43 24 16
43 25 18
43 26 7
43 27 19
43 28 22
43 29 13
43 30 12
43 31 11
43 33 5
43 34 32
43 35 9
43 36 38
43 37 36
43 40 15
43 41 14
43 42 23
44 1 39
44 2 33
44 3 5
44 4 7
44 5 10
44 6 9
44 7 19
44 8 18
44 9 16
44 10 6
44 11 11
44 14 1
44 15 30
44 17 22
44 18 3
44 19 28
44 20 15
44 21 38
44 22 30
44 24 37
44 27 6
44 28 35
44 29 4
44 30 29
44 31 34
44 32 17
44 33 10
44 34 15
44 35 18
44 36 25
44 37 16
44 38 9
44 39 38
44 40 10
44 41 16
44 43 8
45 0 26
45 1 28
45 3 40
45 4 30
45 5 12
45 6 19
45 7 10
45 8 40
45 9 6
45 10 37
45 14 20
45 15 10
45 16 12
45 17 16
45 18 18
45 19 5
45 20 30
45 21 23
45 22 15
45 23 9
45 24 32
45 25 23
45 27 37
45 28 40
45 29 11
45 30 31
45 31 20
45 33 32
45 35 31
45 36 15
45 37 29
45 38 37
45 39 29
45 40 2
45 41 5
45 42 10
45 43 38
45 44 22
46 0 32
46 1 8
46 2 13
46 3 23
46 5 14
46 6 14
46 7 32
46 8 38
46 9 18
46 10 28
46 11 36
46 12 2
46 13 12
46 14 10
46 15 40
46 16 15
46 17 1
46 18 21
46 19 27
46 21 10
46 25 21
46 26 13
46 27 33
46 28 10
46 29 7
46 30 28
46 31 15
46 33 6
46 34 40
46 35 23
46 36 1
46 37 29
46 38 29
46 39 38
46 41 8
46 43 33
46 44 4
46 45 23
47 0 14
47 2 18
47 3 40
47 4 29
47 5 20
47 7 32
47 8 26
47 10 25
47 11 34
47 12 19
47 13 35
47 15 16
47 16 24
47 17 30
47 18 36
47 21 26
47 22 26
47 23 7
47 24 19
47 25 14
47 26 26
47 28 22
47 29 23
47 30 32
47 31 1
47 32 38
47 33 39
47 34 34
47 35 34
47 36 16
47 37 10
47 39 37
47 41 7
47 42 27
47 43 30
47 44 18
47 45 1
47 46 35
48 0 22
48 1 18
48 2 21
48 4 33
48 7 39
48 9 14
48 10 25
48 11 7
48 12 4
48 13 22
48 14 26
48 15 21
48 16 36
48 17 6
48 18 31
48 19 37
48 21 22
48 22 13
48 24 28
48 25 30
48 27 18
48 28 20
48 29 9
48 30 4
48 31 28
48 32 29
48 33 25
48 35 6
48 36 13
48 37 36
48 38 28
48 39 12
48 40 9
48 42 5
48 43 39
48 44 2
48 45 4
48 46 27
48 47 29
49 1 2
49 3 39
49 4 31
49 5 18
49 6 1
49 7 24
49 8 9
49 9 20
49 10 17
49 12 40
49 13 21
49 14 19
49 15 2
49 16 16
49 17 35
49 18 32
49 19 29
49 21 4
49 25 25
49 26 32
49 27 8
49 28 17
49 29 31
49 30 2
49 32 7
49 33 19
49 34 36
49 36 26
49 37 34
49 38 32
49 39 38
49 40 34
49 41 24
49 42 14
49 43 21
49 45 21
49 46 2
50 0 6
50 1 3
50 2 15
50 3 24
50 4 28
50 6 1
50 8 11
50 10 31
50 11 35
50 12 20
50 13 26
50 14 19
50 15 24
50 16 1
50 18 12
50 19 34
50 20 19
50 21 33
50 22 8
50 23 30
50 24 20
50 25 8
50 26 19
50 27 17
50 28 4
50 29 10
50 30 3
50 31 26
50 32 22
50 34 40
50 35 35
50 36 12
50 37 5
50 38 29
50 39 13
50 40 30
50 42 35
50 43 17
50 45 40
50 46 10
50 49 11
51 0 14
51 2 36
51 3 20
51 4 20
51 6 16
51 7 21
51 9 31
51 10 15
51 11 27
51 12 4
51 14 29
51 16 15
51 17 19
51 18 12
51 19 35
51 20 20
51 21 5
51 22 2
51 24 36
51 25 22
51 26 40
51 27 26
51 28 18
51 29 7
51 30 17
51 31 11
51 32 37
51 33 16
51 34 4
51 35 24
51 36 25
51 37 21
51 38 10
51 39 25
51 40 16
51 41 21
51 42 6
51 43 36
51 44 5
51 45 3
51 47 21
51 48 37
51 49 15
51 50 36
52 0 30
52 1 31
52 2 8
52 3 25
52 4 1
52 6 15
52 7 3
52 8 28
52 9 16
52 10 9
52 11 7
52 12 32
52 13 12
52 14 9
52 15 4
52 17 18
52 18 37
52 21 38
52 22 21
52 23 6
52 26 7
52 27 17
52 28 3
52 29 17
52 30 30
52 31 5
52 32 1
52 33 27
52 35 1
52 36 27
52 37 21
52 40 40
52 42 32
52 43 24
52 45 36
52 46 26
52 47 18
52 49 36
52 50 3
52 51 20
53 1 1
53 3 26
53 4 3
53 6 26
53 7 34
53 9 16
53 10 26
53 11 12
53 12 26
53 13 14
53 14 37
53 15 14
53 16 13
53 17 6
53 18 30
53 19 3
53 21 37
53 22 25
53 23 14
53 24 18
53 25 32
53 26 21
53 27 5
53 28 4
53 30 38
53 31 7
53 33 31
53 34 38
53 35 21
53 37 3
53 38 40
53 39 27
53 40 22
53 41 7
53 42 28
53 43 23
53 44 40
53 45 37
53 46 3
53 47 13
53 48 6
53 49 1
53 50 35
53 51 35
54 3 27
54 4 27
54 5 14
54 6 8
54 7 28
54 8 18
54 9 30
54 10 19
54 11 1
54 12 39
54 13 24
54 14 22
54 16 18
54 18 23
54 19 35
54 20 35
54 22 3
54 23 40
54 24 22
54 25 4
54 26 36
54 28 31
54 29 34
54 30 7
54 33 4
54 34 29
54 35 33
54 36 34
54 37 2
54 38 14
54 39 4
54 40 23
54 41 33
54 42 39
54 43 27
54 44 39
54 45 20
54 47 7
54 48 35
54 49 23
54 51 40
54 52 36
54 53 31
55 0 1
55 2 9
55 3 33
55 4 19
55 5 18
55 7 24
55 9 29
55 11 39
55 12 35
55 14 15
55 17 11
55 18 34
55 19 17
55 20 1
55 22 10
55 24 27
55 26 5
55 27 14
55 28 7
55 29 5
55 30 17
55 31 2
55 32 1
55 33 40
55 34 33
55 35 33
55 36 16
55 37 8
55 39 10
55 40 35
55 41 2
55 43 28
55 44 8
55 45 12
55 46 7
55 47 4
55 48 17
55 49 38
55 50 39
55 51 7
55 52 16
55 53 27
55 54 12
56 0 1
56 1 11
56 2 9
56 3 33
56 4 2
56 5 20
56 6 37
56 7 37
56 8 22
56 10 16
56 12 1
56 13 24
56 14 40
56 15 36
56 16 11
56 17 20
56 18 28
56 20 11
56 22 5
56 23 21
56 24 7
56 25 36
56 26 2
56 27 1
56 28 37
56 29 16
56 30 26
56 31 17
56 32 37
56 33 6
56 36 15
56 37 22
56 38 35
56 39 17
56 40 35
56 41 40
56 42 12
56 44 22
56 45 11
56 46 1
56 47 6
56 48 1
56 49 17
56 51 19
56 52 34
56 53 4
56 54 4
56 55 13
57 0 18
57 1 33
57 5 3
57 6 19
57 7 40
57 8 23
57 9 15
57 10 31
57 11 30
57 13 14
57 14 38
57 15 29
57 16 8
57 18 8
57 19 14
57 20 35
57 21 10
57 22 32
57 23 31
57 24 4
57 25 17
57 26 28
57 27 37
57 28 10
57 29 1
57 30 14
57 31 17
57 32 34
57 35 19
57 39 2
57 40 16
57 41 33
57 42 29
57 43 8
57 44 2
57 45 27
57 47 2
57 48 5
57 49 1
57 54 26
57 56 15
58 0 36
58 1 1
58 2 15
58 4 8
58 6 38
58 8 14
58 9 2
58 10 18
58 11 7
58 12 20
58 13 29
58 14 9
58 16 15
58 17 7
58 18 2
58 19 9
58 20 9
58 21 15
58 22 15
58 23 1
58 24 23
58 25 5
58 26 6
58 27 29
58 28 33
58 29 5
58 30 30
58 31 16
58 32 17
58 33 19
58 34 3
58 35 1
58 37 23
58 39 13
58 40 28
58 41 7
58 42 2
58 44 4
58 45 39
58 46 19
58 47 27
58 48 38
58 49 31
58 50 25
58 51 28
58 52 40
58 53 23
58 56 16
58 57 38
59 1 16
59 2 28
59 3 23
59 4 20
59 5 28
59 10 5
59 11 34
59 13 1
59 15 32
59 16 37
59 17 29
59 18 18
59 20 17
59 22 34
59 23 35
59 24 5
59 25 10
59 26 20
59 28 8
59 29 8
59 30 32
59 31 8
59 32 3
59 33 27
59 34 10
59 36 13
59 37 38
59 38 32
59 39 29
59 41 23
59 42 2
59 43 9
59 44 21
59 45 1
59 46 17
59 47 30
59 49 39
59 50 20
59 51 32
59 52 24
59 53 3
59 55 19
59 58 32
